objective value:                                    0
z[3]                                                1 	(obj:0)
r[14,0,6]                            8.27142729437831 	(obj:0)
r[14,1,6]                            31.8598423166354 	(obj:0)
r[14,2,6]                            28.2970172288975 	(obj:0)
r[14,0,7]                             7.8164987931875 	(obj:0)
r[14,1,7]                            29.3269848524629 	(obj:0)
r[14,2,7]                             26.514305143477 	(obj:0)
r[14,0,8]                            6.16827481165483 	(obj:0)
r[14,1,8]                            22.6761165152836 	(obj:0)
r[14,2,8]                            19.0553479257619 	(obj:0)
r[14,0,9]                            4.88699691042908 	(obj:0)
r[14,1,9]                            17.5335535787796 	(obj:0)
r[14,2,9]                            13.3790524353161 	(obj:0)
r[14,0,10]                           2.32415559884938 	(obj:0)
r[14,1,10]                           12.6906273968918 	(obj:0)
r[14,2,10]                            9.2966223953975 	(obj:0)
r[15,0,0]                                          21 	(obj:0)
r[15,1,0]                                          86 	(obj:0)
r[15,2,0]                                          84 	(obj:0)
r[15,0,1]                                    18.30483 	(obj:0)
r[15,1,1]                                      79.163 	(obj:0)
r[15,2,1]                                      78.708 	(obj:0)
r[15,0,2]                                 15.75789435 	(obj:0)
r[15,1,2]                                  72.8695415 	(obj:0)
r[15,2,2]                                   73.749396 	(obj:0)
r[15,0,3]                            14.5623542045767 	(obj:0)
r[15,1,3]                              67.07641295075 	(obj:0)
r[15,2,3]                                69.103184052 	(obj:0)
r[15,0,4]                             12.221254723325 	(obj:0)
r[15,1,4]                            56.2833781211654 	(obj:0)
r[15,2,4]                             57.431913456724 	(obj:0)
r[15,0,5]                            10.0089157135421 	(obj:0)
r[15,1,5]                            46.3483895605327 	(obj:0)
r[15,2,5]                            46.4959329089504 	(obj:0)
r[15,0,6]                            7.91825534929732 	(obj:0)
r[15,1,6]                            37.2032325904704 	(obj:0)
r[15,2,6]                            36.2489191356865 	(obj:0)
r[15,0,7]                            5.94258130508596 	(obj:0)
r[15,1,7]                             28.785115599528 	(obj:0)
r[15,2,7]                            26.6474672301383 	(obj:0)
r[15,0,8]                            4.41993339400641 	(obj:0)
r[15,1,8]                            22.2571341215115 	(obj:0)
r[15,2,8]                            19.2870748750917 	(obj:0)
r[15,0,9]                            3.25221985084019 	(obj:0)
r[15,1,9]                            17.2095893653828 	(obj:0)
r[15,2,9]                            13.6788792706242 	(obj:0)
r[15,0,10]                           2.37624032019535 	(obj:0)
r[15,1,10]                            12.975026510273 	(obj:0)
r[15,2,10]                           9.50496128078141 	(obj:0)
r[16,0,0]                                          21 	(obj:0)
r[16,1,0]                                          86 	(obj:0)
r[16,2,0]                                          84 	(obj:0)
r[16,0,1]                                    18.30483 	(obj:0)
r[16,1,1]                                    73.70254 	(obj:0)
r[16,2,1]                                    71.39023 	(obj:0)
r[16,0,2]                                 15.75789435 	(obj:0)
r[16,1,2]                                 62.38272807 	(obj:0)
r[16,2,2]                                 59.57487551 	(obj:0)
r[16,0,3]                              13.35104016075 	(obj:0)
r[16,1,3]                             51.962841188435 	(obj:0)
r[16,2,3]                              48.50388835287 	(obj:0)
r[16,0,4]                            11.0765629519087 	(obj:0)
r[16,1,4]                            42.3713353139544 	(obj:0)
r[16,2,4]                            38.1303733866392 	(obj:0)
r[16,0,5]                            8.92718198955376 	(obj:0)
r[16,1,5]                             39.002814156495 	(obj:0)
r[16,2,5]                            35.7281598632809 	(obj:0)
r[16,0,6]                            6.89601698012831 	(obj:0)
r[16,1,6]                            30.4416304310537 	(obj:0)
r[16,2,6]                            26.1595157918942 	(obj:0)
r[16,0,7]                            5.25211432373558 	(obj:0)
r[16,1,7]                            23.5379791697817 	(obj:0)
r[16,2,7]                            18.5029017215658 	(obj:0)
r[16,0,8]                            4.02029721553006 	(obj:0)
r[16,1,8]                            18.3236079365369 	(obj:0)
r[16,2,8]                            12.8570009988516 	(obj:0)
r[16,0,9]                            3.14395825428882 	(obj:0)
r[16,1,9]                             14.543879828479 	(obj:0)
r[16,2,9]                            8.93386762638455 	(obj:0)
r[16,0,10]                            1.5519558327189 	(obj:0)
r[16,1,10]                           8.47417153103652 	(obj:0)
r[16,2,10]                           6.20782333087559 	(obj:0)
r[17,0,0]                                          21 	(obj:0)
r[17,1,0]                                          86 	(obj:0)
r[17,2,0]                                          84 	(obj:0)
r[17,0,1]                                    18.30483 	(obj:0)
r[17,1,1]                                    73.70254 	(obj:0)
r[17,2,1]                                    71.39023 	(obj:0)
r[17,0,2]                                 17.29806435 	(obj:0)
r[17,1,2]                                 67.84318807 	(obj:0)
r[17,2,2]                                 66.89264551 	(obj:0)
r[17,0,3]                              16.34667081075 	(obj:0)
r[17,1,3]                             62.449654618435 	(obj:0)
r[17,2,3]                              62.67840884287 	(obj:0)
r[17,0,4]                            13.9074339161587 	(obj:0)
r[17,1,4]                            52.0244470762694 	(obj:0)
r[17,2,4]                            51.4118990857692 	(obj:0)
r[17,0,5]                            10.3815776763153 	(obj:0)
r[17,1,5]                             47.888503533706 	(obj:0)
r[17,2,5]                            48.1729494433658 	(obj:0)
r[17,0,6]                            8.27042090411799 	(obj:0)
r[17,1,6]                            38.6209075027764 	(obj:0)
r[17,2,6]                            37.8202836284337 	(obj:0)
r[17,0,7]                             6.2753777543915 	(obj:0)
r[17,1,7]                            29.9282385922707 	(obj:0)
r[17,2,7]                            28.1198357598424 	(obj:0)
r[17,0,8]                            4.68693784077284 	(obj:0)
r[17,1,8]                            23.1410159902116 	(obj:0)
r[17,2,8]                            20.4410547378087 	(obj:0)
r[17,0,9]                            3.46782038207494 	(obj:0)
r[17,1,9]                            17.8930216493773 	(obj:0)
r[17,2,9]                             14.585697927635 	(obj:0)
r[17,0,10]                           2.53376923855651 	(obj:0)
r[17,1,10]                           13.8351844137054 	(obj:0)
r[17,2,10]                           10.1350769542261 	(obj:0)
r[18,0,0]                                          21 	(obj:0)
r[18,1,0]                                          86 	(obj:0)
r[18,2,0]                                          84 	(obj:0)
r[18,0,1]                                    18.30483 	(obj:0)
r[18,1,1]                                      79.163 	(obj:0)
r[18,2,1]                                      78.708 	(obj:0)
r[18,0,2]                                 15.75789435 	(obj:0)
r[18,1,2]                                  67.4090815 	(obj:0)
r[18,2,2]                                   66.431626 	(obj:0)
r[18,0,3]                              13.35104016075 	(obj:0)
r[18,1,3]                              56.58959952075 	(obj:0)
r[18,2,3]                                54.928663562 	(obj:0)
r[18,0,4]                            11.0765629519087 	(obj:0)
r[18,1,4]                            46.6302663588504 	(obj:0)
r[18,2,4]                             44.150387757594 	(obj:0)
r[18,0,5]                            8.92718198955376 	(obj:0)
r[18,1,5]                            37.4627001833218 	(obj:0)
r[18,2,5]                            34.0511433288656 	(obj:0)
r[18,0,6]                            6.89601698012831 	(obj:0)
r[18,1,6]                            29.0239555187477 	(obj:0)
r[18,2,6]                            24.5881512991471 	(obj:0)
r[18,0,7]                            4.97656604622125 	(obj:0)
r[18,1,7]                            22.4418091525102 	(obj:0)
r[18,2,7]                            17.3103536593253 	(obj:0)
r[18,0,8]                            3.82369016435043 	(obj:0)
r[18,1,8]                            20.6576853248856 	(obj:0)
r[18,2,8]                            16.2198013787878 	(obj:0)
r[18,0,9]                            3.61338720531116 	(obj:0)
r[18,1,9]                            19.0153993415572 	(obj:0)
r[18,2,9]                            15.1979538919242 	(obj:0)
r[18,0,10]                           2.64012790141484 	(obj:0)
r[18,1,10]                           14.4159364775667 	(obj:0)
r[18,2,10]                           10.5605116056593 	(obj:0)
r[19,0,0]                                          21 	(obj:0)
r[19,1,0]                                          86 	(obj:0)
r[19,2,0]                                          84 	(obj:0)
r[19,0,1]                                    18.30483 	(obj:0)
r[19,1,1]                                    73.70254 	(obj:0)
r[19,2,1]                                    71.39023 	(obj:0)
r[19,0,2]                                 17.29806435 	(obj:0)
r[19,1,2]                                 67.84318807 	(obj:0)
r[19,2,2]                                 66.89264551 	(obj:0)
r[19,0,3]                              14.80650081075 	(obj:0)
r[19,1,3]                             56.989194618435 	(obj:0)
r[19,2,3]                              55.36063884287 	(obj:0)
r[19,0,4]                            11.0765629519087 	(obj:0)
r[19,1,4]                            46.9980936462694 	(obj:0)
r[19,2,4]                            44.5551485957692 	(obj:0)
r[19,0,5]                            8.92718198955376 	(obj:0)
r[19,1,5]                            42.5740031714952 	(obj:0)
r[19,2,5]                            40.8265049986566 	(obj:0)
r[19,0,6]                            6.89601698012831 	(obj:0)
r[19,1,6]                            33.7289099193613 	(obj:0)
r[19,2,6]                            30.9366651837412 	(obj:0)
r[19,0,7]                            5.11555248424374 	(obj:0)
r[19,1,7]                            26.0797587993676 	(obj:0)
r[19,2,7]                            22.3302479556801 	(obj:0)
r[19,0,8]                            3.75077846898054 	(obj:0)
r[19,1,8]                            20.1653068735188 	(obj:0)
r[19,2,8]                             15.775823345641 	(obj:0)
r[19,0,9]                            2.74051307687874 	(obj:0)
r[19,1,9]                            15.7117912559744 	(obj:0)
r[19,2,9]                             10.962052307515 	(obj:0)
r[19,0,10]                           1.90428398188639 	(obj:0)
r[19,1,10]                           10.3979950756971 	(obj:0)
r[19,2,10]                           7.61713592754556 	(obj:0)
y[0,9]                              0.134393661019626 	(obj:0)
y[0,10]                            0.0630779162141116 	(obj:0)
y[1,1]                              0.953200456533037 	(obj:0)
y[1,2]                           0.000113218226353124 	(obj:0)
y[1,3]                             0.0001110991569325 	(obj:0)
y[1,4]                           0.000109019867305802 	(obj:0)
y[1,5]                           0.000106979608290161 	(obj:0)
y[1,6]                           0.000104977644862006 	(obj:0)
y[1,7]                           0.000103013255888441 	(obj:0)
y[1,8]                           0.000101085733863736 	(obj:0)
y[1,9]                              0.819499942762486 	(obj:0)
y[1,10]                             0.804167673573545 	(obj:0)
y[2,5]                              0.138605119481177 	(obj:0)
y[2,9]                             0.0853183903093853 	(obj:0)
y[2,10]                            0.0815011207834148 	(obj:0)
y[4,9]                             0.0174295176684996 	(obj:0)
y[4,10]                          3.82967790031662e-07 	(obj:0)
y[5,5]                                1.2735496805381 	(obj:0)
y[5,9]                               1.27657175850445 	(obj:0)
y[5,10]                              1.02756602188401 	(obj:0)
y[6,2]                               0.50585946797899 	(obj:0)
y[6,9]                              0.529610230735656 	(obj:0)
y[6,10]                             0.482267870756372 	(obj:0)
y[7,2]                              0.646545805701404 	(obj:0)
y[7,9]                              0.527880593843243 	(obj:0)
y[7,10]                              0.50087929869646 	(obj:0)
y[8,2]                               1.26693667203776 	(obj:0)
y[8,8]                               1.20194468784594 	(obj:0)
y[8,9]                              0.965060124811719 	(obj:0)
y[8,10]                              1.06883522557856 	(obj:0)
y[9,2]                               1.27054483605549 	(obj:0)
y[9,8]                              0.238778657475604 	(obj:0)
y[9,9]                              0.215060805862672 	(obj:0)
y[9,10]                             0.115628529464093 	(obj:0)
y[10,1]                              1.05679954346696 	(obj:0)
y[10,2]                                          1.57 	(obj:0)
y[10,3]                                          1.57 	(obj:0)
y[10,4]                                          1.57 	(obj:0)
y[10,5]                                          1.57 	(obj:0)
y[10,6]                              1.47468853870936 	(obj:0)
y[10,7]                              1.11559664781829 	(obj:0)
y[10,8]                             0.775187991113727 	(obj:0)
y[10,9]                             0.538650257458296 	(obj:0)
y[10,10]                            0.374288692789259 	(obj:0)
y[11,1]                                          1.57 	(obj:0)
y[11,3]                                          1.57 	(obj:0)
y[11,4]                             0.509890980132694 	(obj:0)
y[11,5]                                          1.57 	(obj:0)
y[11,6]                              0.72520648364578 	(obj:0)
y[11,7]                              1.49900004384987 	(obj:0)
y[11,8]                                1.159051972842 	(obj:0)
y[11,9]                             0.894386169354158 	(obj:0)
y[11,10]                            0.621476784873306 	(obj:0)
y[12,1]                                          1.57 	(obj:0)
y[12,2]                                          1.57 	(obj:0)
y[12,3]                                          1.57 	(obj:0)
y[12,4]                                          1.57 	(obj:0)
y[12,5]                              1.37999755622757 	(obj:0)
y[12,8]                                1.227263522977 	(obj:0)
y[12,9]                             0.948940737753569 	(obj:0)
y[12,10]                            0.664915715241029 	(obj:0)
y[13,1]                                          1.57 	(obj:0)
y[13,3]                                          1.57 	(obj:0)
y[13,4]                                          1.57 	(obj:0)
y[13,5]                                          1.57 	(obj:0)
y[13,7]                              1.03878323759902 	(obj:0)
y[13,8]                             0.683802486329733 	(obj:0)
y[13,9]                              1.00699285453301 	(obj:0)
y[13,10]                            0.758930650685562 	(obj:0)
y[14,1]                                          1.57 	(obj:0)
y[14,2]                                          1.57 	(obj:0)
y[14,3]                             0.899888900843068 	(obj:0)
y[14,5]                                          1.57 	(obj:0)
y[14,6]                                          1.57 	(obj:0)
y[14,8]                              1.24191289287193 	(obj:0)
y[14,9]                             0.960267876233161 	(obj:0)
y[14,10]                            0.695033198132099 	(obj:0)
y[15,4]                                          1.57 	(obj:0)
y[15,5]                                          1.57 	(obj:0)
y[15,6]                                          1.57 	(obj:0)
y[15,7]                                          1.57 	(obj:0)
y[15,8]                              1.21896629898045 	(obj:0)
y[15,9]                              0.94252518501108 	(obj:0)
y[15,10]                            0.710609010039372 	(obj:0)
y[16,1]                                          1.57 	(obj:0)
y[16,2]                                          1.57 	(obj:0)
y[16,3]                                          1.57 	(obj:0)
y[16,4]                                          1.57 	(obj:0)
y[16,6]                                          1.57 	(obj:0)
y[16,7]                              1.28911490569386 	(obj:0)
y[16,8]                             0.961213884199861 	(obj:0)
y[16,9]                             0.667912960639226 	(obj:0)
y[16,10]                            0.464108696641651 	(obj:0)
y[17,1]                                          1.57 	(obj:0)
y[17,4]                                          1.57 	(obj:0)
y[17,6]                                          1.57 	(obj:0)
y[17,7]                                          1.57 	(obj:0)
y[17,8]                              1.26737424783601 	(obj:0)
y[17,9]                             0.979955022890312 	(obj:0)
y[17,10]                            0.757717658006424 	(obj:0)
y[18,2]                                          1.57 	(obj:0)
y[18,3]                                          1.57 	(obj:0)
y[18,4]                                          1.57 	(obj:0)
y[18,5]                                          1.57 	(obj:0)
y[18,6]                                          1.57 	(obj:0)
y[18,7]                              1.22908047800376 	(obj:0)
y[18,10]                            0.789523962899294 	(obj:0)
y[19,1]                                          1.57 	(obj:0)
y[19,3]                                          1.57 	(obj:0)
y[19,4]                                          1.57 	(obj:0)
y[19,5]                             0.197740664144862 	(obj:0)
y[19,6]                                          1.57 	(obj:0)
y[19,7]                              1.42832167377932 	(obj:0)
y[19,8]                              1.10440227179388 	(obj:0)
y[19,9]                             0.819543910609451 	(obj:0)
y[19,10]                            0.569471590773644 	(obj:0)
r[0,0,0]                                           37 	(obj:0)
r[0,0,1]                             1.52992291245609 	(obj:0)
r[0,0,2]                              1.4876970400723 	(obj:0)
r[0,0,3]                              1.4466366017663 	(obj:0)
r[0,0,4]                             1.40670943155755 	(obj:0)
r[0,0,5]                             1.36788425124656 	(obj:0)
r[0,0,6]                             1.33013064591216 	(obj:0)
r[0,0,7]                             1.29341904008498 	(obj:0)
r[0,0,8]                             1.25772067457864 	(obj:0)
r[0,0,9]                            0.919579327490618 	(obj:0)
r[0,0,10]                           0.297807262675598 	(obj:0)
r[1,0,0]                                           37 	(obj:0)
r[1,0,1]                             18.7969169435674 	(obj:0)
r[1,0,2]                             18.2781220359249 	(obj:0)
r[1,0,3]                             17.7736458677334 	(obj:0)
r[1,0,4]                              17.283093241784 	(obj:0)
r[1,0,5]                             16.8060798683107 	(obj:0)
r[1,0,6]                             16.3422320639453 	(obj:0)
r[1,0,7]                             15.8911864589805 	(obj:0)
r[1,0,8]                             15.4525897127126 	(obj:0)
r[1,0,9]                             14.3147686322858 	(obj:0)
r[1,0,10]                                 13.11966942 	(obj:0)
r[2,0,0]                                           37 	(obj:0)
r[2,0,1]                             1.17463178135992 	(obj:0)
r[2,0,2]                             1.14221194419439 	(obj:0)
r[2,0,3]                             1.11068689453462 	(obj:0)
r[2,0,4]                             1.08003193624546 	(obj:0)
r[2,0,5]                             1.00985981586185 	(obj:0)
r[2,0,6]                            0.981987684944061 	(obj:0)
r[2,0,7]                            0.954884824839604 	(obj:0)
r[2,0,8]                            0.928530003674031 	(obj:0)
r[2,0,9]                            0.538104995727235 	(obj:0)
r[2,0,10]                           0.503585411481615 	(obj:0)
r[3,0,0]                                           37 	(obj:0)
r[4,0,0]                                           37 	(obj:0)
r[4,0,1]                            0.056305457048528 	(obj:0)
r[4,0,2]                           0.0547514264339886 	(obj:0)
r[4,0,3]                           0.0532402870644106 	(obj:0)
r[4,0,4]                           0.0517708551414328 	(obj:0)
r[4,0,5]                           0.0503419795395293 	(obj:0)
r[4,0,6]                           0.0489525409042383 	(obj:0)
r[4,0,7]                           0.0476014507752813 	(obj:0)
r[4,0,8]                           0.0462876507338835 	(obj:0)
r[4,0,9]                           0.0435898328941192 	(obj:0)
r[5,0,0]                                           37 	(obj:0)
r[5,0,1]                                      35.9788 	(obj:0)
r[5,0,2]                                  34.98578512 	(obj:0)
r[5,0,3]                              34.020177450688 	(obj:0)
r[5,0,4]                              33.081220553049 	(obj:0)
r[5,0,5]                             30.7185756597042 	(obj:0)
r[5,0,6]                             29.8707429714964 	(obj:0)
r[5,0,7]                             29.0463104654831 	(obj:0)
r[5,0,8]                             28.2446322966358 	(obj:0)
r[5,0,9]                             26.0099194003338 	(obj:0)
r[5,0,10]                            24.2670094578812 	(obj:0)
r[6,0,0]                                           37 	(obj:0)
r[6,0,1]                                      35.9788 	(obj:0)
r[6,0,2]                             34.6593776921192 	(obj:0)
r[6,0,3]                             33.7027788678167 	(obj:0)
r[6,0,4]                             32.7725821710649 	(obj:0)
r[6,0,5]                             8.44555516183284 	(obj:0)
r[6,0,6]                             8.21245783936626 	(obj:0)
r[6,0,7]                             7.98579400299975 	(obj:0)
r[6,0,8]                             7.76538608851696 	(obj:0)
r[6,0,9]                             7.06230886965467 	(obj:0)
r[6,0,10]                            6.30922800151767 	(obj:0)
r[7,0,0]                                           37 	(obj:0)
r[7,0,1]                             11.6857851558862 	(obj:0)
r[7,0,2]                             10.8781526810352 	(obj:0)
r[7,0,3]                             10.5779156670386 	(obj:0)
r[7,0,4]                             10.2859651946284 	(obj:0)
r[7,0,5]                             10.0020725552566 	(obj:0)
r[7,0,6]                             9.72601535273155 	(obj:0)
r[7,0,7]                             9.45757732899616 	(obj:0)
r[7,0,8]                             9.19654819471586 	(obj:0)
r[7,0,9]                             8.44236394019524 	(obj:0)
r[7,0,10]                            7.88812020121938 	(obj:0)
r[8,0,0]                                           37 	(obj:0)
r[8,0,1]                                      35.9788 	(obj:0)
r[8,0,2]                             33.5483175860856 	(obj:0)
r[8,0,3]                             32.6223840207096 	(obj:0)
r[8,0,4]                              31.722006221738 	(obj:0)
r[8,0,5]                             30.8464788500181 	(obj:0)
r[8,0,6]                             29.9951160337576 	(obj:0)
r[8,0,7]                             29.1672508312259 	(obj:0)
r[8,0,8]                             23.7914548493655 	(obj:0)
r[8,0,9]                             22.2085626484852 	(obj:0)
r[8,0,10]                             19.996750311503 	(obj:0)
r[9,0,0]                                           37 	(obj:0)
r[9,0,1]                                      35.9788 	(obj:0)
r[9,0,2]                             33.4564731301104 	(obj:0)
r[9,0,3]                             32.5330744717194 	(obj:0)
r[9,0,4]                             31.6351616162999 	(obj:0)
r[9,0,5]                               30.76203115569 	(obj:0)
r[9,0,6]                              29.912999095793 	(obj:0)
r[9,0,7]                             29.0874003207491 	(obj:0)
r[9,0,8]                              2.1629819175295 	(obj:0)
r[9,0,9]                             2.02124939833793 	(obj:0)
r[9,0,10]                           0.834036519464922 	(obj:0)
r[10,0,0]                                          21 	(obj:0)
r[10,1,0]                                          86 	(obj:0)
r[10,2,0]                                          84 	(obj:0)
r[10,0,1]                                    18.30483 	(obj:0)
r[10,1,1]                            75.4874511878219 	(obj:0)
r[10,2,1]                            73.7822573279005 	(obj:0)
r[10,0,2]                                 15.75789435 	(obj:0)
r[10,1,2]                            64.0257388183901 	(obj:0)
r[10,2,2]                            61.8162051162428 	(obj:0)
r[10,0,3]                              13.35104016075 	(obj:0)
r[10,1,3]                            53.4752325823281 	(obj:0)
r[10,2,3]                            50.6040141939195 	(obj:0)
r[10,0,4]                            11.0765629519087 	(obj:0)
r[10,1,4]                             43.763491592033 	(obj:0)
r[10,2,4]                            40.0981912997025 	(obj:0)
r[10,0,5]                            8.92718198955376 	(obj:0)
r[10,1,5]                            34.8238340104664 	(obj:0)
r[10,2,5]                            30.2542352478213 	(obj:0)
r[10,0,6]                            6.98951752365443 	(obj:0)
r[10,1,6]                            26.9263724690031 	(obj:0)
r[10,2,6]                            21.4746951482842 	(obj:0)
r[10,0,7]                            5.51069374834369 	(obj:0)
r[10,1,7]                            20.9056807166054 	(obj:0)
r[10,2,7]                            14.9219933784613 	(obj:0)
r[10,0,8]                            4.44714617290222 	(obj:0)
r[10,1,8]                            16.5475752665417 	(obj:0)
r[10,2,8]                            10.3687565690371 	(obj:0)
r[10,0,9]                            3.67413723082601 	(obj:0)
r[10,1,9]                            13.3586174374117 	(obj:0)
r[10,2,9]                            7.20487605517466 	(obj:0)
r[10,0,10]                           1.25160231665198 	(obj:0)
r[10,1,10]                           6.83414598298859 	(obj:0)
r[10,2,10]                           5.00640926660792 	(obj:0)
r[11,0,0]                                          21 	(obj:0)
r[11,1,0]                                          86 	(obj:0)
r[11,2,0]                                          84 	(obj:0)
r[11,0,1]                                    18.30483 	(obj:0)
r[11,1,1]                                    73.70254 	(obj:0)
r[11,2,1]                                    71.39023 	(obj:0)
r[11,0,2]                                 15.75789435 	(obj:0)
r[11,1,2]                                 67.84318807 	(obj:0)
r[11,2,2]                                 66.89264551 	(obj:0)
r[11,0,3]                              13.35104016075 	(obj:0)
r[11,1,3]                             56.989194618435 	(obj:0)
r[11,2,3]                              55.36063884287 	(obj:0)
r[11,0,4]                            11.0765629519087 	(obj:0)
r[11,1,4]                            50.6851528173679 	(obj:0)
r[11,2,4]                            49.4963167373707 	(obj:0)
r[11,0,5]                            8.92718198955376 	(obj:0)
r[11,1,5]                            41.1952231683872 	(obj:0)
r[11,2,5]                            39.0602787829164 	(obj:0)
r[11,0,6]                             7.7247594196718 	(obj:0)
r[11,1,6]                            35.3979347763804 	(obj:0)
r[11,2,6]                            33.2192937993197 	(obj:0)
r[11,0,7]                            5.82937860857313 	(obj:0)
r[11,1,7]                            27.3702768091483 	(obj:0)
r[11,2,7]                            24.1396390855783 	(obj:0)
r[11,0,8]                             4.3717327997436 	(obj:0)
r[11,1,8]                            21.1631570412765 	(obj:0)
r[11,2,8]                            17.2165005777703 	(obj:0)
r[11,0,9]                            3.25389466362127 	(obj:0)
r[11,1,9]                            16.3700109594813 	(obj:0)
r[11,2,9]                             11.963127106011 	(obj:0)
r[11,0,10]                           2.07818670100946 	(obj:0)
r[11,1,10]                           11.3475591293215 	(obj:0)
r[11,2,10]                           8.31274680403786 	(obj:0)
r[12,0,0]                                          21 	(obj:0)
r[12,1,0]                                          86 	(obj:0)
r[12,2,0]                                          84 	(obj:0)
r[12,0,1]                                    18.30483 	(obj:0)
r[12,1,1]                                    73.70254 	(obj:0)
r[12,2,1]                                    71.39023 	(obj:0)
r[12,0,2]                                 15.75789435 	(obj:0)
r[12,1,2]                                 62.38272807 	(obj:0)
r[12,2,2]                                 59.57487551 	(obj:0)
r[12,0,3]                              13.35104016075 	(obj:0)
r[12,1,3]                             51.962841188435 	(obj:0)
r[12,2,3]                              48.50388835287 	(obj:0)
r[12,0,4]                            11.0765629519087 	(obj:0)
r[12,1,4]                            42.3713353139544 	(obj:0)
r[12,2,4]                            38.1303733866392 	(obj:0)
r[12,0,5]                            9.11357438689452 	(obj:0)
r[12,1,5]                            34.2031826559355 	(obj:0)
r[12,2,5]                            29.2959912537042 	(obj:0)
r[12,0,6]                            8.61232779561532 	(obj:0)
r[12,1,6]                            31.4840296347887 	(obj:0)
r[12,2,6]                            27.4503438047209 	(obj:0)
r[12,0,7]                            8.13864976685648 	(obj:0)
r[12,1,7]                             28.981049278823 	(obj:0)
r[12,2,7]                            25.7209721450234 	(obj:0)
r[12,0,8]                            6.48707851363893 	(obj:0)
r[12,1,8]                            22.4086333282425 	(obj:0)
r[12,2,8]                            18.3802756192912 	(obj:0)
r[12,0,9]                            5.19937833165254 	(obj:0)
r[12,1,9]                            17.3267310927403 	(obj:0)
r[12,2,9]                            12.7993054766064 	(obj:0)
r[12,0,10]                           2.22344427071045 	(obj:0)
r[12,1,10]                           12.1407115734031 	(obj:0)
r[12,2,10]                           8.89377708284179 	(obj:0)
r[13,0,0]                                          21 	(obj:0)
r[13,1,0]                                          86 	(obj:0)
r[13,2,0]                                          84 	(obj:0)
r[13,0,1]                                    18.30483 	(obj:0)
r[13,1,1]                                    73.70254 	(obj:0)
r[13,2,1]                                    71.39023 	(obj:0)
r[13,0,2]                                 15.75789435 	(obj:0)
r[13,1,2]                                 67.84318807 	(obj:0)
r[13,2,2]                                 66.89264551 	(obj:0)
r[13,0,3]                              13.35104016075 	(obj:0)
r[13,1,3]                             56.989194618435 	(obj:0)
r[13,2,3]                              55.36063884287 	(obj:0)
r[13,0,4]                            11.0765629519087 	(obj:0)
r[13,1,4]                            46.9980936462694 	(obj:0)
r[13,2,4]                            44.5551485957692 	(obj:0)
r[13,0,5]                            8.92718198955376 	(obj:0)
r[13,1,5]                             37.801285201391 	(obj:0)
r[13,2,5]                            34.4304042342358 	(obj:0)
r[13,0,6]                            8.43618698012831 	(obj:0)
r[13,1,6]                            34.7960830278804 	(obj:0)
r[13,2,6]                            32.2612887674789 	(obj:0)
r[13,0,7]                            6.95315034013661 	(obj:0)
r[13,1,7]                            28.4169063267945 	(obj:0)
r[13,2,7]                            25.3870589046787 	(obj:0)
r[13,0,8]                            5.89991683233963 	(obj:0)
r[13,1,8]                            23.7794972263596 	(obj:0)
r[13,2,8]                            20.6004708049011 	(obj:0)
r[13,0,9]                            4.58756141626406 	(obj:0)
r[13,1,9]                            18.3867060487981 	(obj:0)
r[13,2,9]                            14.6090474492139 	(obj:0)
r[13,0,10]                           2.53782542426701 	(obj:0)
r[13,1,10]                           13.8573324753627 	(obj:0)
r[13,2,10]                            10.151301697068 	(obj:0)
r[14,0,0]                                          21 	(obj:0)
r[14,1,0]                                          86 	(obj:0)
r[14,2,0]                                          84 	(obj:0)
r[14,0,1]                                    18.30483 	(obj:0)
r[14,1,1]                                    73.70254 	(obj:0)
r[14,2,1]                                    71.39023 	(obj:0)
r[14,0,2]                                 15.75789435 	(obj:0)
r[14,1,2]                                 62.38272807 	(obj:0)
r[14,2,2]                                 59.57487551 	(obj:0)
r[14,0,3]                              13.35104016075 	(obj:0)
r[14,1,3]                            54.2934875913028 	(obj:0)
r[14,2,3]                            51.6272761860405 	(obj:0)
r[14,0,4]                            12.6167329519087 	(obj:0)
r[14,1,4]                            49.9771553277942 	(obj:0)
r[14,2,4]                            48.3747577863199 	(obj:0)
r[14,0,5]                            10.3826426395538 	(obj:0)
r[14,1,5]                            40.5435114792346 	(obj:0)
r[14,2,5]                            38.0093780457818 	(obj:0)
